NAME : instance_5
COMMENT : Converted from simplified format
TYPE : CVRP
DIMENSION : 16
EDGE_WEIGHT_TYPE : EUC_2D
CAPACITY : 33
NODE_COORD_SECTION
1 0 0
2 77 12
3 52 81
4 38 12
5 60 66
6 23 94
7 96 90
8 56 90
9 99 75
10 7 38
11 67 5
12 14 37
13 90 77
14 74 29
15 42 49
16 53 85
DEMAND_SECTION
1 0
2 6
3 4
4 4
5 10
6 1
7 1
8 2
9 4
10 10
11 6
12 1
13 10
14 2
15 3
16 1
DEPOT_SECTION
1
EOF
